(set-logic QF_NRA)
(declare-fun c2uscore2dollarsk_17 () Real)
(declare-fun x2uscore4dollarsk_8 () Real)
(declare-fun omuscore3dollarsk_16 () Real)
(declare-fun d1uscore4dollarsk_10 () Real)
(declare-fun c1uscore2dollarsk_18 () Real)
(declare-fun x1uscore4dollarsk_9 () Real)
(declare-fun d2uscore4dollarsk_11 () Real)
(declare-fun y2uscore4dollarsk_4 () Real)
(declare-fun e1uscore4dollarsk_6 () Real)
(declare-fun y1uscore4dollarsk_5 () Real)
(declare-fun e2uscore4dollarsk_7 () Real)
(declare-fun z2uscore4dollarsk_0 () Real)
(declare-fun f1uscore4dollarsk_2 () Real)
(declare-fun z1uscore4dollarsk_1 () Real)
(declare-fun f2uscore4dollarsk_3 () Real)
(declare-fun u2uscore4dollarsk_12 () Real)
(declare-fun g1uscore4dollarsk_14 () Real)
(declare-fun u1uscore4dollarsk_13 () Real)
(declare-fun g2uscore4dollarsk_15 () Real)
(declare-fun protectedzone () Real)
(declare-fun y2uscore3dollarsk_23 () Real)
(declare-fun x2uscore3dollarsk_25 () Real)
(declare-fun y1uscore3dollarsk_24 () Real)
(declare-fun x1uscore3dollarsk_26 () Real)
(declare-fun z2uscore3dollarsk_21 () Real)
(declare-fun z1uscore3dollarsk_22 () Real)
(declare-fun u2uscore3dollarsk_19 () Real)
(declare-fun u1uscore3dollarsk_20 () Real)
(declare-fun y2uscore2dollarsk_34 () Real)
(declare-fun x2uscore2dollarsk_32 () Real)
(declare-fun y1uscore2dollarsk_33 () Real)
(declare-fun x1uscore2dollarsk_31 () Real)
(declare-fun z2uscore2dollarsk_30 () Real)
(declare-fun z1uscore2dollarsk_29 () Real)
(declare-fun u2uscore2dollarsk_28 () Real)
(declare-fun u1uscore2dollarsk_27 () Real)
(declare-fun y2 () Real)
(declare-fun x2 () Real)
(declare-fun y1 () Real)
(declare-fun x1 () Real)
(declare-fun z2 () Real)
(declare-fun z1 () Real)
(declare-fun u2 () Real)
(declare-fun u1 () Real)
(assert (= (+ d1uscore4dollarsk_10 (* (- 1) (* c2uscore2dollarsk_17 omuscore3dollarsk_16)) (* x2uscore4dollarsk_8 omuscore3dollarsk_16)) 0))
(assert (= (+ d2uscore4dollarsk_11 (* omuscore3dollarsk_16 c1uscore2dollarsk_18) (* (- 1) (* omuscore3dollarsk_16 x1uscore4dollarsk_9))) 0))
(assert (= (+ e1uscore4dollarsk_6 (* (- 1) (* c2uscore2dollarsk_17 omuscore3dollarsk_16)) (* omuscore3dollarsk_16 y2uscore4dollarsk_4)) 0))
(assert (= (+ e2uscore4dollarsk_7 (* omuscore3dollarsk_16 c1uscore2dollarsk_18) (* (- 1) (* omuscore3dollarsk_16 y1uscore4dollarsk_5))) 0))
(assert (= (+ f1uscore4dollarsk_2 (* (- 1) (* c2uscore2dollarsk_17 omuscore3dollarsk_16)) (* omuscore3dollarsk_16 z2uscore4dollarsk_0)) 0))
(assert (= (+ f2uscore4dollarsk_3 (* omuscore3dollarsk_16 c1uscore2dollarsk_18) (* (- 1) (* omuscore3dollarsk_16 z1uscore4dollarsk_1))) 0))
(assert (= (+ g1uscore4dollarsk_14 (* (- 1) (* c2uscore2dollarsk_17 omuscore3dollarsk_16)) (* omuscore3dollarsk_16 u2uscore4dollarsk_12)) 0))
(assert (= (+ g2uscore4dollarsk_15 (* omuscore3dollarsk_16 c1uscore2dollarsk_18) (* (- 1) (* omuscore3dollarsk_16 u1uscore4dollarsk_13))) 0))
(assert (>= (+ (* (- 1) (* protectedzone protectedzone)) (* y1uscore3dollarsk_24 y1uscore3dollarsk_24) (* (- 2) (* y1uscore3dollarsk_24 x1uscore3dollarsk_26)) (* x1uscore3dollarsk_26 x1uscore3dollarsk_26) (* y2uscore3dollarsk_23 y2uscore3dollarsk_23) (* (- 2) (* y2uscore3dollarsk_23 x2uscore3dollarsk_25)) (* x2uscore3dollarsk_25 x2uscore3dollarsk_25)) 0))
(assert (>= (+ (* (- 1) (* protectedzone protectedzone)) (* y1uscore3dollarsk_24 y1uscore3dollarsk_24) (* y2uscore3dollarsk_23 y2uscore3dollarsk_23) (* (- 2) (* y1uscore3dollarsk_24 z1uscore3dollarsk_22)) (* z1uscore3dollarsk_22 z1uscore3dollarsk_22) (* (- 2) (* y2uscore3dollarsk_23 z2uscore3dollarsk_21)) (* z2uscore3dollarsk_21 z2uscore3dollarsk_21)) 0))
(assert (>= (+ (* (- 1) (* protectedzone protectedzone)) (* x1uscore3dollarsk_26 x1uscore3dollarsk_26) (* x2uscore3dollarsk_25 x2uscore3dollarsk_25) (* z1uscore3dollarsk_22 z1uscore3dollarsk_22) (* z2uscore3dollarsk_21 z2uscore3dollarsk_21) (* (- 2) (* x1uscore3dollarsk_26 z1uscore3dollarsk_22)) (* (- 2) (* x2uscore3dollarsk_25 z2uscore3dollarsk_21))) 0))
(assert (>= (+ (* (- 1) (* protectedzone protectedzone)) (* x1uscore3dollarsk_26 x1uscore3dollarsk_26) (* x2uscore3dollarsk_25 x2uscore3dollarsk_25) (* (- 2) (* x1uscore3dollarsk_26 u1uscore3dollarsk_20)) (* u1uscore3dollarsk_20 u1uscore3dollarsk_20) (* (- 2) (* x2uscore3dollarsk_25 u2uscore3dollarsk_19)) (* u2uscore3dollarsk_19 u2uscore3dollarsk_19)) 0))
(assert (>= (+ (* (- 1) (* protectedzone protectedzone)) (* y1uscore3dollarsk_24 y1uscore3dollarsk_24) (* y2uscore3dollarsk_23 y2uscore3dollarsk_23) (* u1uscore3dollarsk_20 u1uscore3dollarsk_20) (* u2uscore3dollarsk_19 u2uscore3dollarsk_19) (* (- 2) (* y1uscore3dollarsk_24 u1uscore3dollarsk_20)) (* (- 2) (* y2uscore3dollarsk_23 u2uscore3dollarsk_19))) 0))
(assert (>= (+ (* (- 1) (* protectedzone protectedzone)) (* z1uscore3dollarsk_22 z1uscore3dollarsk_22) (* z2uscore3dollarsk_21 z2uscore3dollarsk_21) (* u1uscore3dollarsk_20 u1uscore3dollarsk_20) (* u2uscore3dollarsk_19 u2uscore3dollarsk_19) (* (- 2) (* z1uscore3dollarsk_22 u1uscore3dollarsk_20)) (* (- 2) (* z2uscore3dollarsk_21 u2uscore3dollarsk_19))) 0))
(assert (>= (+ (* (- 1) (* protectedzone protectedzone)) (* y1uscore2dollarsk_33 y1uscore2dollarsk_33) (* (- 2) (* y1uscore2dollarsk_33 x1uscore2dollarsk_31)) (* x1uscore2dollarsk_31 x1uscore2dollarsk_31) (* y2uscore2dollarsk_34 y2uscore2dollarsk_34) (* (- 2) (* y2uscore2dollarsk_34 x2uscore2dollarsk_32)) (* x2uscore2dollarsk_32 x2uscore2dollarsk_32)) 0))
(assert (>= (+ (* (- 1) (* protectedzone protectedzone)) (* y1uscore2dollarsk_33 y1uscore2dollarsk_33) (* y2uscore2dollarsk_34 y2uscore2dollarsk_34) (* (- 2) (* y1uscore2dollarsk_33 z1uscore2dollarsk_29)) (* z1uscore2dollarsk_29 z1uscore2dollarsk_29) (* (- 2) (* y2uscore2dollarsk_34 z2uscore2dollarsk_30)) (* z2uscore2dollarsk_30 z2uscore2dollarsk_30)) 0))
(assert (>= (+ (* (- 1) (* protectedzone protectedzone)) (* x1uscore2dollarsk_31 x1uscore2dollarsk_31) (* x2uscore2dollarsk_32 x2uscore2dollarsk_32) (* z1uscore2dollarsk_29 z1uscore2dollarsk_29) (* z2uscore2dollarsk_30 z2uscore2dollarsk_30) (* (- 2) (* x1uscore2dollarsk_31 z1uscore2dollarsk_29)) (* (- 2) (* x2uscore2dollarsk_32 z2uscore2dollarsk_30))) 0))
(assert (>= (+ (* (- 1) (* protectedzone protectedzone)) (* x1uscore2dollarsk_31 x1uscore2dollarsk_31) (* x2uscore2dollarsk_32 x2uscore2dollarsk_32) (* (- 2) (* x1uscore2dollarsk_31 u1uscore2dollarsk_27)) (* u1uscore2dollarsk_27 u1uscore2dollarsk_27) (* (- 2) (* x2uscore2dollarsk_32 u2uscore2dollarsk_28)) (* u2uscore2dollarsk_28 u2uscore2dollarsk_28)) 0))
(assert (>= (+ (* (- 1) (* protectedzone protectedzone)) (* y1uscore2dollarsk_33 y1uscore2dollarsk_33) (* y2uscore2dollarsk_34 y2uscore2dollarsk_34) (* u1uscore2dollarsk_27 u1uscore2dollarsk_27) (* u2uscore2dollarsk_28 u2uscore2dollarsk_28) (* (- 2) (* y1uscore2dollarsk_33 u1uscore2dollarsk_27)) (* (- 2) (* y2uscore2dollarsk_34 u2uscore2dollarsk_28))) 0))
(assert (>= (+ (* (- 1) (* protectedzone protectedzone)) (* z1uscore2dollarsk_29 z1uscore2dollarsk_29) (* z2uscore2dollarsk_30 z2uscore2dollarsk_30) (* u1uscore2dollarsk_27 u1uscore2dollarsk_27) (* u2uscore2dollarsk_28 u2uscore2dollarsk_28) (* (- 2) (* z1uscore2dollarsk_29 u1uscore2dollarsk_27)) (* (- 2) (* z2uscore2dollarsk_30 u2uscore2dollarsk_28))) 0))
(assert (>= (+ (* (- 1) (* protectedzone protectedzone)) (* y1 y1) (* (- 2) (* y1 x1)) (* x1 x1) (* y2 y2) (* (- 2) (* y2 x2)) (* x2 x2)) 0))
(assert (>= (+ (* (- 1) (* protectedzone protectedzone)) (* y1 y1) (* y2 y2) (* (- 2) (* y1 z1)) (* z1 z1) (* (- 2) (* y2 z2)) (* z2 z2)) 0))
(assert (>= (+ (* (- 1) (* protectedzone protectedzone)) (* x1 x1) (* x2 x2) (* z1 z1) (* z2 z2) (* (- 2) (* x1 z1)) (* (- 2) (* x2 z2))) 0))
(assert (>= (+ (* (- 1) (* protectedzone protectedzone)) (* x1 x1) (* x2 x2) (* (- 2) (* x1 u1)) (* u1 u1) (* (- 2) (* x2 u2)) (* u2 u2)) 0))
(assert (>= (+ (* (- 1) (* protectedzone protectedzone)) (* y1 y1) (* y2 y2) (* u1 u1) (* u2 u2) (* (- 2) (* y1 u1)) (* (- 2) (* y2 u2))) 0))
(assert (>= (+ (* (- 1) (* protectedzone protectedzone)) (* z1 z1) (* z2 z2) (* u1 u1) (* u2 u2) (* (- 2) (* z1 u1)) (* (- 2) (* z2 u2))) 0))
(assert (not (>= (+ (* 2 (* e1uscore4dollarsk_6 y1uscore4dollarsk_5)) (* (- 2) (* y1uscore4dollarsk_5 g1uscore4dollarsk_14)) (* (- 2) (* e1uscore4dollarsk_6 u1uscore4dollarsk_13)) (* 2 (* g1uscore4dollarsk_14 u1uscore4dollarsk_13)) (* 2 (* y2uscore4dollarsk_4 e2uscore4dollarsk_7)) (* (- 2) (* y2uscore4dollarsk_4 g2uscore4dollarsk_15)) (* (- 2) (* e2uscore4dollarsk_7 u2uscore4dollarsk_12)) (* 2 (* u2uscore4dollarsk_12 g2uscore4dollarsk_15))) 0)))
(check-sat)
